(set-logic QF_LIA)
(declare-fun x0 () Int)
(declare-fun x1 () Int)
(declare-fun x2 () Int)
(declare-fun x3 () Int)
(declare-fun x4 () Int)
(declare-fun x5 () Int)
(declare-fun x6 () Int)
(declare-fun x7 () Int)
(declare-fun x8 () Int)
(declare-fun x9 () Int)
(declare-fun A0 () Bool)
(declare-fun A1 () Bool)
(declare-fun A2 () Bool)
(declare-fun A3 () Bool)
(declare-fun A4 () Bool)
(declare-fun A5 () Bool)
(declare-fun A6 () Bool)
(declare-fun A7 () Bool)
(declare-fun A8 () Bool)
(declare-fun A9 () Bool)
(assert (let ((.def_0 (* (- 1) x4))) (let ((.def_1 (* 1 x2))) (let ((.def_2 (+ .def_1 .def_0))) (let ((.def_3 (< .def_2 (- 1)))) (let ((.def_4 (not .def_3))) (let ((.def_5 (= .def_4 A3))) (let ((.def_6 (* (- 1) x2))) (let ((.def_7 (< .def_6 (- 1)))) (let ((.def_8 (not .def_7))) (let ((.def_9 (not A5))) (let ((.def_10 (or .def_9 .def_8))) (let ((.def_11 (and .def_10 .def_5))) (let ((.def_12 (* 1 x3))) (let ((.def_13 (< .def_12 (- 1)))) (let ((.def_14 (* 1 x4))) (let ((.def_15 (* 1 x0))) (let ((.def_16 (+ .def_15 .def_14))) (let ((.def_17 (< .def_16 1))) (let ((.def_18 (not .def_17))) (let ((.def_19 (or .def_18 .def_13))) (let ((.def_20 (not .def_19))) (let ((.def_21 (not A9))) (let ((.def_22 (* (- 1) x9))) (let ((.def_23 (+ .def_22 .def_15))) (let ((.def_24 (< .def_23 1))) (let ((.def_25 (not .def_24))) (let ((.def_26 (= .def_25 .def_21))) (let ((.def_27 (not .def_26))) (let ((.def_28 (or .def_27 .def_20))) (let ((.def_29 (or .def_28 .def_11))) (let ((.def_30 (not .def_29))) (let ((.def_31 (* (- 1) x1))) (let ((.def_32 (+ .def_6 .def_31))) (let ((.def_33 (< .def_32 (- 1)))) (let ((.def_34 (not .def_33))) (let ((.def_35 (not A7))) (let ((.def_36 (and .def_35 .def_34))) (let ((.def_37 (not .def_36))) (let ((.def_38 (< .def_14 (- 1)))) (let ((.def_39 (not .def_38))) (let ((.def_40 (* 1 x9))) (let ((.def_41 (+ .def_40 .def_12))) (let ((.def_42 (< .def_41 (- 1)))) (let ((.def_43 (not .def_42))) (let ((.def_44 (or .def_43 .def_39))) (let ((.def_45 (or .def_44 .def_37))) (let ((.def_46 (not .def_45))) (let ((.def_47 (< .def_1 1))) (let ((.def_48 (< .def_6 1))) (let ((.def_49 (not .def_48))) (let ((.def_50 (and .def_49 .def_47))) (let ((.def_51 (not .def_50))) (let ((.def_52 (< .def_22 (- 1)))) (let ((.def_53 (or .def_52 A2))) (let ((.def_54 (= .def_53 .def_51))) (let ((.def_55 (and .def_54 .def_46))) (let ((.def_56 (not .def_55))) (let ((.def_57 (or .def_56 .def_30))) (let ((.def_58 (not A0))) (let ((.def_59 (* 1 x6))) (let ((.def_60 (< .def_59 (- 1)))) (let ((.def_61 (not .def_60))) (let ((.def_62 (or .def_61 .def_58))) (let ((.def_63 (not .def_62))) (let ((.def_64 (* 1 x5))) (let ((.def_65 (< .def_64 1))) (let ((.def_66 (not .def_65))) (let ((.def_67 (= .def_66 A1))) (let ((.def_68 (not .def_67))) (let ((.def_69 (or .def_68 .def_63))) (let ((.def_70 (* (- 1) x7))) (let ((.def_71 (+ .def_70 .def_0))) (let ((.def_72 (< .def_71 1))) (let ((.def_73 (not .def_72))) (let ((.def_74 (< .def_0 (- 1)))) (let ((.def_75 (or .def_74 .def_73))) (let ((.def_76 (* (- 1) x5))) (let ((.def_77 (+ .def_14 .def_76))) (let ((.def_78 (< .def_77 (- 1)))) (let ((.def_79 (not .def_78))) (let ((.def_80 (* (- 1) x0))) (let ((.def_81 (< .def_80 (- 1)))) (let ((.def_82 (or .def_81 .def_79))) (let ((.def_83 (or .def_82 .def_75))) (let ((.def_84 (not .def_83))) (let ((.def_85 (or .def_84 .def_69))) (let ((.def_86 (* 1 x8))) (let ((.def_87 (< .def_86 (- 1)))) (let ((.def_88 (not A8))) (let ((.def_89 (or .def_88 .def_87))) (let ((.def_90 (not .def_89))) (let ((.def_91 (+ .def_14 .def_15))) (let ((.def_92 (< .def_91 1))) (let ((.def_93 (not .def_92))) (let ((.def_94 (or A9 .def_93))) (let ((.def_95 (not .def_94))) (let ((.def_96 (or .def_95 .def_90))) (let ((.def_97 (not .def_96))) (let ((.def_98 (+ .def_59 .def_31))) (let ((.def_99 (< .def_98 (- 1)))) (let ((.def_100 (* 1 x7))) (let ((.def_101 (+ .def_76 .def_100))) (let ((.def_102 (< .def_101 1))) (let ((.def_103 (not .def_102))) (let ((.def_104 (= .def_103 .def_99))) (let ((.def_105 (* (- 1) x6))) (let ((.def_106 (< .def_105 (- 1)))) (let ((.def_107 (+ .def_6 .def_59))) (let ((.def_108 (< .def_107 1))) (let ((.def_109 (or .def_108 .def_106))) (let ((.def_110 (not .def_109))) (let ((.def_111 (or .def_110 .def_104))) (let ((.def_112 (not .def_111))) (let ((.def_113 (and .def_112 .def_97))) (let ((.def_114 (not .def_113))) (let ((.def_115 (and .def_114 .def_85))) (let ((.def_116 (or .def_115 .def_57))) (let ((.def_117 (not .def_116))) (let ((.def_118 (< .def_1 (- 1)))) (let ((.def_119 (and .def_88 .def_118))) (let ((.def_120 (< .def_76 1))) (let ((.def_121 (not .def_120))) (let ((.def_122 (and A1 .def_121))) (let ((.def_123 (or .def_122 .def_119))) (let ((.def_124 (not .def_123))) (let ((.def_125 (* (- 1) x8))) (let ((.def_126 (< .def_125 1))) (let ((.def_127 (or .def_126 .def_9))) (let ((.def_128 (+ .def_12 .def_80))) (let ((.def_129 (< .def_128 1))) (let ((.def_130 (not .def_129))) (let ((.def_131 (< .def_86 1))) (let ((.def_132 (not .def_131))) (let ((.def_133 (and .def_132 .def_130))) (let ((.def_134 (not .def_133))) (let ((.def_135 (or .def_134 .def_127))) (let ((.def_136 (or .def_135 .def_124))) (let ((.def_137 (not A3))) (let ((.def_138 (or .def_137 .def_52))) (let ((.def_139 (< .def_31 1))) (let ((.def_140 (not .def_139))) (let ((.def_141 (= A3 .def_140))) (let ((.def_142 (or .def_141 .def_138))) (let ((.def_143 (not A6))) (let ((.def_144 (not A1))) (let ((.def_145 (or .def_144 .def_143))) (let ((.def_146 (< .def_80 1))) (let ((.def_147 (+ .def_80 .def_70))) (let ((.def_148 (< .def_147 (- 1)))) (let ((.def_149 (and .def_148 .def_146))) (let ((.def_150 (not .def_149))) (let ((.def_151 (or .def_150 .def_145))) (let ((.def_152 (and .def_151 .def_142))) (let ((.def_153 (or .def_152 .def_136))) (let ((.def_154 (not .def_153))) (let ((.def_155 (or A0 A9))) (let ((.def_156 (not .def_155))) (let ((.def_157 (or A0 A8))) (let ((.def_158 (not .def_157))) (let ((.def_159 (and .def_158 .def_156))) (let ((.def_160 (not .def_159))) (let ((.def_161 (+ .def_22 .def_86))) (let ((.def_162 (< .def_161 (- 1)))) (let ((.def_163 (< .def_59 1))) (let ((.def_164 (not .def_163))) (let ((.def_165 (and .def_164 .def_162))) (let ((.def_166 (< .def_76 (- 1)))) (let ((.def_167 (not .def_166))) (let ((.def_168 (= A0 .def_167))) (let ((.def_169 (or .def_168 .def_165))) (let ((.def_170 (or .def_169 .def_160))) (let ((.def_171 (and .def_74 A0))) (let ((.def_172 (+ .def_70 .def_76))) (let ((.def_173 (< .def_172 1))) (let ((.def_174 (not .def_173))) (let ((.def_175 (or A6 .def_174))) (let ((.def_176 (not .def_175))) (let ((.def_177 (= .def_176 .def_171))) (let ((.def_178 (= .def_118 A4))) (let ((.def_179 (not .def_178))) (let ((.def_180 (+ .def_100 .def_59))) (let ((.def_181 (< .def_180 (- 1)))) (let ((.def_182 (+ .def_40 .def_6))) (let ((.def_183 (< .def_182 (- 1)))) (let ((.def_184 (not .def_183))) (let ((.def_185 (or .def_184 .def_181))) (let ((.def_186 (not .def_185))) (let ((.def_187 (or .def_186 .def_179))) (let ((.def_188 (not .def_187))) (let ((.def_189 (or .def_188 .def_177))) (let ((.def_190 (and .def_189 .def_170))) (let ((.def_191 (or .def_190 .def_154))) (let ((.def_192 (or .def_191 .def_117))) (let ((.def_193 (not .def_192))) (let ((.def_194 (<= x9 1))) (let ((.def_195 (<= 0 x9))) (let ((.def_196 (<= x8 1))) (let ((.def_197 (<= 0 x8))) (let ((.def_198 (<= x7 1))) (let ((.def_199 (<= 0 x7))) (let ((.def_200 (<= x6 1))) (let ((.def_201 (<= 0 x6))) (let ((.def_202 (<= x5 1))) (let ((.def_203 (<= 0 x5))) (let ((.def_204 (<= x4 1))) (let ((.def_205 (<= 0 x4))) (let ((.def_206 (<= x3 1))) (let ((.def_207 (<= 0 x3))) (let ((.def_208 (<= x2 1))) (let ((.def_209 (<= 0 x2))) (let ((.def_210 (<= x1 1))) (let ((.def_211 (<= 0 x1))) (let ((.def_212 (<= x0 1))) (let ((.def_213 (<= 0 x0))) (let ((.def_214 (and .def_213 .def_212 .def_211 .def_210 .def_209 .def_208 .def_207 .def_206 .def_205 .def_204 .def_203 .def_202 .def_201 .def_200 .def_199 .def_198 .def_197 .def_196 .def_195 .def_194 .def_193))) .def_214))))))))))))))))))))))))))))))))))))))))))))))))))))))))))))))))))))))))))))))))))))))))))))))))))))))))))))))))))))))))))))))))))))))))))))))))))))))))))))))))))))))))))))))))))))))))))))))))))))))))))))))))))))))))
(check-sat)
